/*********************************************
 * OPL 12.6.0.0 Data
 * Author: Adrian Rodriguez Bazaga, Pau Rodriguez Esmerats
 * Creation Date: 01/12/2017 at 09:09:15
 *********************************************/

nNurses=609;
maxConsec=2;
maxPresence=7;
maxHours=5;
minHours=1;
demand= [117 126 156 162 126 156 162 133 110 62 12 21 17 26 19 19 14 9 7 5 112 213 103 161  ];
